50, 785
52, 47
16, 11
46, 41
35, 30
26, 21
41, 36
10, 5
7, 2
49, 44
42, 37
53, 48
30, 25
52, 47
8, 3
6, 1
10, 5
21, 16
47, 42
22, 17
24, 19
40, 35
6, 1
35, 30
50, 45
12, 7
37, 32
55, 50
34, 29
26, 21
40, 35
26, 21
6, 1
46, 41
11, 6
44, 39
11, 6
49, 44
8, 3
38, 33
48, 43
55, 50
11, 6
50, 45
50, 45
28, 23
35, 30
32, 27
26, 21
14, 9
51, 46
